JulietBench/Juliet_Based_Patch_Bench/qemu/CWE-190-Integer-Overflow-or-Wraparound/CVE_2014_0143_6a83f8b5bec6f59e56cc49bd49e4c3f8f805d56f/cve1/Resultqcow2_snapshot_load_tmp_Snippet_patch2EQ.smt2
; benchmark generated from python API
(set-info :status unknown)
(declare-fun R () (_ BitVec 32))
(declare-fun rdi () (_ BitVec 64))
(assert
 (let (($x32 (= (_ bv8192 32) R)))
 (let ((?x28 ((_ extract 28 0) rdi)))
 (let ((?x29 (concat ?x28 (_ bv0 3))))
 (let (($x23 (= R ?x29)))
 (and $x23 $x32))))))
(check-sat)
